Test: fpga11_13_uns_rcr.cnf
Options: -no-inverting-opt -sym-var-bump
WARNING: for repeatability, setting FPU to use double precision
============================[ Problem Statistics ]=============================
|                                                                             |
|  Number of symmetries:           44                                         |
|  Number of invertingSyms:         0                                         |
|  Number of variables:           286                                         |
|  Number of clauses:            1742                                         |
|  Parse time:                   0.00 s                                       |
|                                                                             |
============================[ Search Statistics ]==============================
| Conflicts |          ORIGINAL         |          LEARNT          | Progress |
|           |    Vars  Clauses Literals |    Limit  Clauses Lit/Cl |          |
===============================================================================
|       100 |     286     1742     3718 |      638      200     35 |  0.001 % |
|       250 |     286     1742     3718 |      702      423     42 |  0.001 % |
|       475 |     286     1742     3718 |      772      769     44 |  0.001 % |
|       812 |     286     1742     3718 |      850      452     40 |  0.001 % |
|      1318 |     286     1742     3718 |      935      786     46 |  0.001 % |
|      2077 |     286     1742     3718 |     1028      959     46 |  0.001 % |
|      3216 |     286     1742     3718 |     1131     1042     50 |  0.001 % |
|      4924 |     286     1742     3718 |     1244      796     45 |  0.001 % |
|      7486 |     286     1742     3718 |     1369     1243     44 |  0.001 % |
|     11330 |     286     1742     3718 |     1506      949     30 |  0.001 % |
===============================================================================
restarts              : 51
conflicts             : 11805          (42769 /sec)
symconflicts          : 1395           (5054 /sec)
decisions             : 18031          (0.00 % random) (65326 /sec)
propagations          : 241637         (875442 /sec)
sympropagations       : 8243           (29864 /sec)
conflict literals     : 561987         (5.77 % deleted)
literals     : 561987         (5.77 % deleted)

HEURISTIC USAGES
random                : 0           
activity w/ lookahead : 0           
activity no lookahead : 0           
original sp           : 18031       
sym count             : 0           

Memory used           : 6.00 MB
CPU time              : 0.276017 s

UNSATISFIABLE
